c Result of efficient AIG-to-CNF conversion using package CNF
p cnf 202 650
-2 3 87 114 119 0
-2 -3 -87 114 119 0
2 -114 0
2 3 -87 0
2 -119 0
2 -3 87 0
3 -171 -4 0
3 -4 -32 0
3 -171 -32 0
-3 171 32 0
-3 4 32 0
-3 171 4 0
4 -139 5 0
4 139 -5 0
-4 139 5 0
-4 -139 -5 0
-5 140 6 0
5 -140 0
5 -6 0
-6 141 7 0
6 -141 0
6 -7 0
-7 142 8 0
7 -142 0
7 -8 0
-8 143 9 0
8 -143 0
8 -9 0
-9 144 10 0
9 -144 0
9 -10 0
-10 145 11 0
10 -145 0
10 -11 0
-11 146 12 0
11 -146 0
11 -12 0
-12 147 13 0
12 -147 0
12 -13 0
-13 148 14 0
13 -148 0
13 -14 0
-14 149 15 0
14 -149 0
14 -15 0
-15 150 16 0
15 -150 0
15 -16 0
-16 151 17 0
16 -151 0
16 -17 0
-17 152 18 0
17 -152 0
17 -18 0
-18 153 19 0
18 -153 0
18 -19 0
-19 154 20 0
19 -154 0
19 -20 0
-20 155 21 0
20 -155 0
20 -21 0
-21 156 22 0
21 -156 0
21 -22 0
-22 157 23 0
22 -157 0
22 -23 0
-23 158 24 0
23 -158 0
23 -24 0
-24 159 25 0
24 -159 0
24 -25 0
-25 160 26 0
25 -160 0
25 -26 0
-26 161 27 0
26 -161 0
26 -27 0
-27 162 28 0
27 -162 0
27 -28 0
-28 163 29 0
28 -163 0
28 -29 0
-29 164 30 0
29 -164 0
29 -30 0
-30 165 31 0
30 -165 0
30 -31 0
-31 166 167 168 169 0
31 -169 0
31 -168 0
31 -166 0
31 -167 0
32 -172 -33 0
32 -33 -34 0
32 -172 -34 0
-32 172 34 0
-32 33 34 0
-32 172 33 0
33 -140 6 0
33 140 -6 0
-33 140 6 0
-33 -140 -6 0
34 -173 -35 0
34 -35 -36 0
34 -173 -36 0
-34 173 36 0
-34 35 36 0
-34 173 35 0
35 -141 7 0
35 141 -7 0
-35 141 7 0
-35 -141 -7 0
36 -174 -37 0
36 -37 -38 0
36 -174 -38 0
-36 174 38 0
-36 37 38 0
-36 174 37 0
37 -142 8 0
37 142 -8 0
-37 142 8 0
-37 -142 -8 0
38 -175 -39 0
38 -39 -40 0
38 -175 -40 0
-38 175 40 0
-38 39 40 0
-38 175 39 0
39 -143 9 0
39 143 -9 0
-39 143 9 0
-39 -143 -9 0
40 -176 -41 0
40 -41 -42 0
40 -176 -42 0
-40 176 42 0
-40 41 42 0
-40 176 41 0
41 -144 10 0
41 144 -10 0
-41 144 10 0
-41 -144 -10 0
42 -177 -43 0
42 -43 -44 0
42 -177 -44 0
-42 177 44 0
-42 43 44 0
-42 177 43 0
43 -145 11 0
43 145 -11 0
-43 145 11 0
-43 -145 -11 0
44 -178 -45 0
44 -45 -46 0
44 -178 -46 0
-44 178 46 0
-44 45 46 0
-44 178 45 0
45 -146 12 0
45 146 -12 0
-45 146 12 0
-45 -146 -12 0
46 -179 -47 0
46 -47 -48 0
46 -179 -48 0
-46 179 48 0
-46 47 48 0
-46 179 47 0
47 -147 13 0
47 147 -13 0
-47 147 13 0
-47 -147 -13 0
48 -180 -49 0
48 -49 -50 0
48 -180 -50 0
-48 180 50 0
-48 49 50 0
-48 180 49 0
49 -148 14 0
49 148 -14 0
-49 148 14 0
-49 -148 -14 0
50 -181 -51 0
50 -51 -52 0
50 -181 -52 0
-50 181 52 0
-50 51 52 0
-50 181 51 0
51 -149 15 0
51 149 -15 0
-51 149 15 0
-51 -149 -15 0
52 -182 -53 0
52 -53 -54 0
52 -182 -54 0
-52 182 54 0
-52 53 54 0
-52 182 53 0
53 -150 16 0
53 150 -16 0
-53 150 16 0
-53 -150 -16 0
54 -183 -55 0
54 -55 -56 0
54 -183 -56 0
-54 183 56 0
-54 55 56 0
-54 183 55 0
55 -151 17 0
55 151 -17 0
-55 151 17 0
-55 -151 -17 0
56 -184 -57 0
56 -57 -58 0
56 -184 -58 0
-56 184 58 0
-56 57 58 0
-56 184 57 0
57 -152 18 0
57 152 -18 0
-57 152 18 0
-57 -152 -18 0
58 -185 -59 0
58 -59 -60 0
58 -185 -60 0
-58 185 60 0
-58 59 60 0
-58 185 59 0
59 -153 19 0
59 153 -19 0
-59 153 19 0
-59 -153 -19 0
60 -186 -61 0
60 -61 -62 0
60 -186 -62 0
-60 186 62 0
-60 61 62 0
-60 186 61 0
61 -154 20 0
61 154 -20 0
-61 154 20 0
-61 -154 -20 0
62 -187 -63 0
62 -63 -64 0
62 -187 -64 0
-62 187 64 0
-62 63 64 0
-62 187 63 0
63 -155 21 0
63 155 -21 0
-63 155 21 0
-63 -155 -21 0
64 -188 -65 0
64 -65 -66 0
64 -188 -66 0
-64 188 66 0
-64 65 66 0
-64 188 65 0
65 -156 22 0
65 156 -22 0
-65 156 22 0
-65 -156 -22 0
66 -189 -67 0
66 -67 -68 0
66 -189 -68 0
-66 189 68 0
-66 67 68 0
-66 189 67 0
67 -157 23 0
67 157 -23 0
-67 157 23 0
-67 -157 -23 0
68 -190 -69 0
68 -69 -70 0
68 -190 -70 0
-68 190 70 0
-68 69 70 0
-68 190 69 0
69 -158 24 0
69 158 -24 0
-69 158 24 0
-69 -158 -24 0
70 -191 -71 0
70 -71 -72 0
70 -191 -72 0
-70 191 72 0
-70 71 72 0
-70 191 71 0
71 -159 25 0
71 159 -25 0
-71 159 25 0
-71 -159 -25 0
72 -192 -73 0
72 -73 -74 0
72 -192 -74 0
-72 192 74 0
-72 73 74 0
-72 192 73 0
73 -160 26 0
73 160 -26 0
-73 160 26 0
-73 -160 -26 0
74 -193 -75 0
74 -75 -76 0
74 -193 -76 0
-74 193 76 0
-74 75 76 0
-74 193 75 0
75 -161 27 0
75 161 -27 0
-75 161 27 0
-75 -161 -27 0
76 -194 -77 0
76 -77 -78 0
76 -194 -78 0
-76 194 78 0
-76 77 78 0
-76 194 77 0
77 -162 28 0
77 162 -28 0
-77 162 28 0
-77 -162 -28 0
78 -195 -79 0
78 -79 -80 0
78 -195 -80 0
-78 195 80 0
-78 79 80 0
-78 195 79 0
79 -163 29 0
79 163 -29 0
-79 163 29 0
-79 -163 -29 0
80 -196 -81 0
80 -81 -82 0
80 -196 -82 0
-80 196 82 0
-80 81 82 0
-80 196 81 0
81 -164 30 0
81 164 -30 0
-81 164 30 0
-81 -164 -30 0
82 165 -31 83 0
82 -165 -197 31 0
82 -165 -197 83 0
82 165 -197 -31 0
-82 165 31 0
-82 -165 -31 -83 0
-82 197 -83 0
-82 -165 197 0
-83 166 -198 0
-83 -198 84 0
-83 166 84 0
-83 -198 85 0
-83 166 85 0
83 -166 198 0
83 198 -84 -85 0
83 -166 -84 -85 0
-84 167 168 169 0
84 -167 0
84 -169 0
84 -168 0
85 -167 -86 0
85 -167 199 0
85 199 -86 0
-85 -199 86 0
-85 167 86 0
-85 167 -199 0
86 -168 200 0
86 -168 -169 201 0
86 -169 200 201 0
-86 168 -201 0
-86 -200 -201 0
-86 168 -200 0
-86 169 -200 0
-86 168 169 0
87 139 -171 -5 0
87 -139 -171 88 0
87 139 -5 88 0
-87 171 -88 0
-87 -139 171 0
-87 -139 -88 0
-87 139 5 0
88 -140 -89 0
88 -140 172 0
88 172 -89 0
-88 -172 89 0
-88 140 89 0
-88 140 -172 0
89 -141 -90 0
89 -141 173 0
89 173 -90 0
-89 -173 90 0
-89 141 90 0
-89 141 -173 0
90 -142 -91 0
90 -142 174 0
90 174 -91 0
-90 -174 91 0
-90 142 91 0
-90 142 -174 0
91 -143 -92 0
91 -143 175 0
91 175 -92 0
-91 -175 92 0
-91 143 92 0
-91 143 -175 0
92 -144 -93 0
92 -144 176 0
92 176 -93 0
-92 -176 93 0
-92 144 93 0
-92 144 -176 0
93 -145 -94 0
93 -145 177 0
93 177 -94 0
-93 -177 94 0
-93 145 94 0
-93 145 -177 0
94 -146 -95 0
94 -146 178 0
94 178 -95 0
-94 -178 95 0
-94 146 95 0
-94 146 -178 0
95 -147 -96 0
95 -147 179 0
95 179 -96 0
-95 -179 96 0
-95 147 96 0
-95 147 -179 0
96 -148 -97 0
96 -148 180 0
96 180 -97 0
-96 -180 97 0
-96 148 97 0
-96 148 -180 0
97 -149 -98 0
97 -149 181 0
97 181 -98 0
-97 -181 98 0
-97 149 98 0
-97 149 -181 0
98 -150 -99 0
98 -150 182 0
98 182 -99 0
-98 -182 99 0
-98 150 99 0
-98 150 -182 0
99 -151 -100 0
99 -151 183 0
99 183 -100 0
-99 -183 100 0
-99 151 100 0
-99 151 -183 0
100 -152 -101 0
100 -152 184 0
100 184 -101 0
-100 -184 101 0
-100 152 101 0
-100 152 -184 0
101 -153 -102 0
101 -153 185 0
101 185 -102 0
-101 -185 102 0
-101 153 102 0
-101 153 -185 0
102 -154 -103 0
102 -154 186 0
102 186 -103 0
-102 -186 103 0
-102 154 103 0
-102 154 -186 0
103 -155 -104 0
103 -155 187 0
103 187 -104 0
-103 -187 104 0
-103 155 104 0
-103 155 -187 0
104 -156 -105 0
104 -156 188 0
104 188 -105 0
-104 -188 105 0
-104 156 105 0
-104 156 -188 0
105 -157 -106 0
105 -157 189 0
105 189 -106 0
-105 -189 106 0
-105 157 106 0
-105 157 -189 0
106 -158 -107 0
106 -158 190 0
106 190 -107 0
-106 -190 107 0
-106 158 107 0
-106 158 -190 0
107 -159 -108 0
107 -159 191 0
107 191 -108 0
-107 -191 108 0
-107 159 108 0
-107 159 -191 0
108 -160 -109 0
108 -160 192 0
108 192 -109 0
-108 -192 109 0
-108 160 109 0
-108 160 -192 0
109 -161 -110 0
109 -161 193 0
109 193 -110 0
-109 -193 110 0
-109 161 110 0
-109 161 -193 0
110 -162 -111 0
110 -162 194 0
110 194 -111 0
-110 -194 111 0
-110 162 111 0
-110 162 -194 0
111 -163 -112 0
111 -163 195 0
111 195 -112 0
-111 -195 112 0
-111 163 112 0
-111 163 -195 0
112 -164 -113 0
112 -164 196 0
112 196 -113 0
-112 -196 113 0
-112 164 113 0
-112 164 -196 0
113 197 -83 0
113 -165 197 0
113 -165 -83 0
-113 165 -197 0
-113 -197 83 0
-113 165 83 0
114 -115 117 0
114 115 -117 0
-114 115 117 0
-114 -115 -117 0
115 -88 116 0
115 88 -116 0
-115 88 116 0
-115 -88 -116 0
-116 -139 -171 0
-116 139 171 0
116 139 -171 0
116 -139 171 0
-117 -32 -118 0
-117 32 118 0
117 32 -118 0
117 -32 118 0
118 171 -4 0
118 -171 4 0
-118 -171 -4 0
-118 171 4 0
-119 120 -125 -127 129 0
-119 120 125 127 129 0
119 -129 0
119 -125 127 0
119 -120 0
119 125 -127 0
120 -121 123 0
120 121 -123 0
-120 121 123 0
-120 -121 -123 0
121 -89 122 0
121 89 -122 0
-121 89 122 0
-121 -89 -122 0
-122 -140 -172 0
-122 140 172 0
122 140 -172 0
122 -140 172 0
-123 -34 -124 0
-123 34 124 0
123 34 -124 0
123 -34 124 0
124 172 -33 0
124 -172 33 0
-124 -172 -33 0
-124 172 33 0
125 -90 126 0
125 90 -126 0
-125 90 126 0
-125 -90 -126 0
-126 -141 -173 0
-126 141 173 0
126 141 -173 0
126 -141 173 0
-127 -36 -128 0
-127 36 128 0
127 36 -128 0
127 -36 128 0
128 173 -35 0
128 -173 35 0
-128 -173 -35 0
-128 173 35 0
-129 -130 -132 -134 -136 0
-129 130 132 134 136 0
-129 -130 -132 134 136 0
-129 130 132 -134 -136 0
129 -130 132 0
129 130 -132 0
129 134 -136 0
129 -134 136 0
130 -91 131 0
130 91 -131 0
-130 91 131 0
-130 -91 -131 0
-131 -142 -174 0
-131 142 174 0
131 142 -174 0
131 -142 174 0
-132 -38 -133 0
-132 38 133 0
132 38 -133 0
132 -38 133 0
133 174 -37 0
133 -174 37 0
-133 -174 -37 0
-133 174 37 0
134 -92 135 0
134 92 -135 0
-134 92 135 0
-134 -92 -135 0
-135 -143 -175 0
-135 143 175 0
135 143 -175 0
135 -143 175 0
-136 -40 -137 0
-136 40 137 0
136 40 -137 0
136 -40 137 0
137 175 -39 0
137 -175 39 0
-137 -175 -39 0
-137 175 39 0
-202 0
2 0

